StringID   Type       x          y          demand     ReadyTime  DueDate    ServiceTime wp1 wp2 wp3 wp4 wp5 wp6 wp7 wp8 wp9 wp10 wp11 wp12 wp13 wp14 wp15 wp16 wp17 wp18 wp19 wp20 wp21
D0         d          40.0       50.0       0.0        0.0        1236.0     0.0         6   7   8   9   10  11  12  13  14  15   16   17   18   19   20   21   22   23   24   1    2 
S0         f          40.0       50.0       0.0        0.0        1236.0     0.0         0.2 0.4 0.6 1   1   1   1   1   1   1    1    0.6  0.4  0.2  0    0    0    0    0    0    0
S15        f          39.0       26.0       0.0        0.0        1236.0     0.0         0   0.1 0.2 0.3 0.3 0.2 0.2 0.2 0.2 0.3  0.3  0.2  0.1  0.0  0    0    0    0    0    0    0
C20        c          30.0       50.0       10.0       0.0        1136.0     90.0        0   0.1 0.2 0.3 0.3 0.2 0.2 0.2 0.2 0.3  0.3  0.2  0.1  0.0  0    0    0    0    0    0    0
C98        c          58.0       75.0       20.0       0.0        1115.0     90.0        0.2 0.4 0.6 1   1   1   1   1   1   1    1    0.6  0.4  0.2  0    0    0    0    0    0    0 
C65        c          48.0       40.0       10.0       67.0       139.0      90.0         
C57        c          40.0       15.0       40.0       989.0      1063.0     90.0        
C24        c          25.0       50.0       10.0       0.0        1131.0     90.0        

F Vehicle fuel tank capacity /12/
Q Vehicle load capacity /200.0/
r fuel consumption rate /0.155/
m inverse refueling rate /0.5/
v average Velocity /1.0/
